s td 104 19 197
b 1 4 40 131 146
b 2 9 22 111
b 3 13 20 21 77 83 157 162 167
b 4 15 16 51 58 64 101 103 104
b 5 3 18 98
b 6 19 22 111
b 7 22 111
b 8 3 28 98
b 9 33 97 140 147 175
b 10 43 62 70 84 110
b 11 49 55 69 120
b 12 44 55 69 119 120 143
b 13 56 106 110 124 139 171 174 183
b 14 66 114 193
b 15 38 78 116
b 16 38 116 117
b 17 82 89 99 122 130 154 175 181
b 18 31 91 177
b 19 44 93 119 143
b 20 44 69 119 120 143
b 21 3 98
b 22 12 114 123
b 23 77 129 137 184 185
b 24 69 101 119 172
b 25 14 71 73 118 146 150 158 165
b 26 34 156 169
b 27 48 114 193
b 28 8 11 57 100
b 29 2 11 57 100
b 30 20 77 116
b 31 47 77 116
b 32 39 90 164 176
b 33 47 110 139
b 34 3 47 139
b 35 47 175 181
b 36 47 111 181
b 37 36 61 68 108
b 38 37 65 86 96 121
b 39 10 37 86 96 121
b 40 101 103 134 144
b 41 39 101 134 144 166
b 42 39 101 164 176
b 43 39 101 164 166
b 44 101 164 166 172
b 45 3 47 76 94 111
b 46 7 47 76 94 111 170
b 47 7 47 76 94 170 172 189
b 48 47 94 111 116 170
b 49 10 35 63 86 87 96 133 155 173 178 188 192 197
b 50 35 53 63 86 87 88 96 141 155 173 178 179 188 192
b 51 35 53 63 86 87 88 141 148 155 173 178 179 188 195
b 52 35 53 86 87 88 115 148 155 161 173 178 179 188 195
b 53 29 53 86 87 88 115 135 148 155 161 173 178 188 195
b 54 29 86 87 88 92 115 135 148 155 161 178 188 195
b 55 29 46 86 87 88 92 115 135 148 155 161 188 195
b 56 10 35 37 63 86 87 96 133 155 173 192 197
b 57 10 35 37 63 87 133 155 173 186 192 197
b 58 67 133 178 188 197
b 59 12 14 41 164 168
b 60 12 14 27 41 47 48 60 105 164
b 61 14 27 41 47 48 59 60 105 164 166
b 62 14 41 47 48 59 60 73 105 164 166
b 63 14 47 59 73 94 105 164 166
b 64 14 47 59 73 94 105 158 166
b 65 14 47 59 73 75 85 105 151 158 166
b 66 59 75 85 105 151 158 160 166
b 67 14 47 73 75 85 146 151 158
b 68 25 41 48 60 73 166
b 69 25 48 60 73 107 166
b 70 12 27 47 48 60 105 114 164
b 71 1 5 12 48 60 105 114
b 72 5 12 27 48 60 105 114
b 73 2 7 17 23 24 37 61 76 94 108 113 155 163 170 177 189 190 192 197
b 74 7 17 23 31 76 94 108 155 170 177 189 197
b 75 7 17 23 31 76 94 126 170 177 189
b 76 7 17 23 76 94 126 170 172 189
b 77 2 23 24 37 45 61 94 108 113 155 163 177 186 190 192 197
b 78 2 23 24 37 45 52 61 94 108 113 163 177 186 190 192
b 79 2 23 24 37 52 61 100 108 113 163 177 186 190 192
b 80 2 23 37 52 57 61 100 108 186 192
b 81 23 37 57 156 186 192
b 82 23 34 37 57 156 192
b 83 2 7 17 24 37 50 61 76 113 127 145 149 155 163 170 189 190 192 197
b 84 7 24 37 42 50 61 76 113 127 145 149 155 163 170 189 190 196 197
b 85 7 24 37 42 50 61 102 113 127 145 155 163 170 189 191 196 197
b 86 24 37 42 50 61 80 102 113 127 155 170 182 189 191 196 197
b 87 37 42 50 61 80 102 113 125 155 170 182 191 196 197
b 88 37 42 50 61 80 102 112 113 125 155 170 182 191 196
b 89 2 54 81 108 109 128 132 153
b 90 53 88 96 141 159 178 179 192
b 91 14 71 73 85 118 146 158 165
b 92 14 73 75 85 118 146 158 165
b 93 14 73 75 85 146 151 158 165
b 94 7 17 23 30 76 126 170 172 189
b 95 47 94 164 166 172
b 96 2 54 79 81 108 109 128 153 180
b 97 2 72 79 81 95 108 109 128 136 153 180
b 98 2 6 26 57 61 72 79 95 108 109 128 136 153 180 187
b 99 2 6 26 52 57 61 72 79 100 108 187
b 100 6 26 52 61 68 72 79 100 108 187
b 101 6 26 57 61 95 108 109 128 136 138 152 153 180 187
b 102 26 32 57 61 95 108 128 136 138 152 153 180 187 194
b 103 26 32 57 61 95 108 128 136 138 142 152 180 194
b 104 26 32 61 74 95 108 128 136 138 142 152 180 194
1 67
2 7
3 30
4 40
5 21
6 7
7 45
8 21
9 35
10 33
11 12
12 20
13 33
14 27
15 16
16 48
17 35
18 74
19 20
20 24
21 45
22 70
23 31
24 44
25 91
26 82
27 70
28 29
29 80
30 31
31 48
32 42
33 34
34 45
35 36
36 45
37 100
38 39
39 56
40 41
41 43
42 43
43 44
44 95
45 46
46 48
46 47
47 95
47 76
49 50
49 56
49 58
50 90
50 51
51 52
52 53
53 54
54 55
56 57
57 77
59 60
60 70
60 61
61 62
62 68
62 63
63 95
63 64
64 65
65 66
65 67
67 93
68 69
70 72
71 72
73 74
73 77
73 83
74 75
75 76
76 94
77 78
78 79
79 80
80 99
80 81
81 82
83 84
84 85
85 86
86 87
87 88
89 96
91 92
92 93
96 97
97 98
98 101
98 99
99 100
101 102
102 103
103 104
